
******************************************************************************
This program contains Ipopt, a library for large-scale nonlinear optimization.
 Ipopt is released as open source code under the Eclipse Public License (EPL).
         For more information visit http://projects.coin-or.org/Ipopt

This version of Ipopt was compiled from source code available at
    https://github.com/IDAES/Ipopt as part of the Institute for the Design of
    Advanced Energy Systems Process Systems Engineering Framework (IDAES PSE
    Framework) Copyright (c) 2018-2019. See https://github.com/IDAES/idaes-pse.

This version of Ipopt was compiled using HSL, a collection of Fortran codes
    for large-scale scientific computation.  All technical papers, sales and
    publicity material resulting from use of the HSL codes within IPOPT must
    contain the following acknowledgement:
        HSL, a collection of Fortran codes for large-scale scientific
        computation. See http://www.hsl.rl.ac.uk.
******************************************************************************

This is Ipopt version 3.13.2, running with linear solver ma27.

Number of nonzeros in equality constraint Jacobian...:     1210
Number of nonzeros in inequality constraint Jacobian.:        0
Number of nonzeros in Lagrangian Hessian.............:     1376

Total number of variables............................:      480
                     variables with only lower bounds:      128
                variables with lower and upper bounds:      288
                     variables with only upper bounds:        0
Total number of equality constraints.................:      477
Total number of inequality constraints...............:        0
        inequality constraints with only lower bounds:        0
   inequality constraints with lower and upper bounds:        0
        inequality constraints with only upper bounds:        0

iter    objective    inf_pr   inf_du lg(mu)  ||d||  lg(rg) alpha_du alpha_pr  ls
   0  0.0000000e+00 1.53e+00 1.65e-14  -1.0 0.00e+00    -  0.00e+00 0.00e+00   0
   1  6.2035831e+00 1.25e+00 5.02e+05  -1.0 3.39e+06    -  6.61e-02 7.30e-02h  3
   2  1.0371800e+01 1.24e+00 5.27e+05  -1.0 5.92e+06    -  4.39e-02 1.48e-02h  5
   3  3.6553231e+01 1.20e+00 9.98e+05  -1.0 1.34e+07    -  2.51e-02 3.03e-02h  3
   4  1.0202675e+02 1.06e+00 2.32e+06  -1.0 4.24e+07    -  1.33e-02 1.19e-02h  2
   5  1.7492755e+02 9.93e-01 2.63e+06  -1.0 3.14e+07    -  3.28e-02 1.35e-02h  2
   6  3.7174464e+02 9.36e-01 3.57e+06  -1.0 3.22e+07    -  6.30e-02 2.68e-02h  2
   7  3.7325699e+02 9.36e-01 3.87e+06  -1.0 7.55e+06  -4.0 9.84e-03 3.75e-03h  5
   8  3.7451691e+02 9.51e-01 8.62e+06  -1.0 6.60e+06  -4.5 9.12e-03 6.77e-03h  5
   9  3.7718164e+02 9.66e-01 1.45e+07  -1.0 4.79e+06  -4.1 1.81e-02 6.50e-03h  5
iter    objective    inf_pr   inf_du lg(mu)  ||d||  lg(rg) alpha_du alpha_pr  ls
  10  3.7632422e+02 1.00e+00 1.80e+07  -1.0 1.21e+07  -4.5 2.22e-02 5.57e-03f  4
  11  3.7802762e+02 1.05e+02 4.34e+08  -1.0 1.05e+08  -5.0 3.23e-03 1.55e-02w  1
  12  4.0282918e+02 9.52e+01 4.35e+08  -1.0 1.13e+07  -5.5 1.44e-01 9.57e-02w  1
  13  3.1312235e+03 7.29e+01 9.61e+10  -1.0 2.34e+07  -4.2 7.45e-02 2.34e-01w  1
  14  3.7192984e+02 1.01e+00 1.80e+07  -1.0 6.47e+06  -2.8 3.23e-03 4.83e-04f  5
  15  3.7561261e+02 1.01e+00 2.22e+07  -1.0 3.35e+06  -3.3 1.26e-01 4.40e-03h  5
  16  3.8008962e+02 1.02e+00 2.58e+07  -1.0 3.99e+06  -3.8 1.29e-01 3.68e-03h  5
  17  3.8278179e+02 1.02e+00 2.65e+07  -1.0 7.03e+06  -4.3 5.40e-02 1.76e-03h  6
  18  3.8289484e+02 1.02e+00 2.65e+07  -1.0 1.81e+07  -3.8 2.30e-02 1.25e-04h 10
  19  3.8314862e+02 1.01e+00 2.97e+07  -1.0 4.15e+06  -0.7 1.52e-01 1.94e-04h  9
iter    objective    inf_pr   inf_du lg(mu)  ||d||  lg(rg) alpha_du alpha_pr  ls
  20  3.8369116e+02 1.01e+00 3.22e+07  -1.0 4.02e+06  -1.2 2.30e-01 3.72e-04h  8
  21  4.4868947e+02 1.00e+00 1.18e+08  -1.0 3.72e+07    -  7.10e-02 8.25e-03h  4
  22  7.6875857e+02 9.57e-01 1.11e+09  -1.0 5.52e+07    -  9.96e-02 2.20e-02h  3
  23  1.0061196e+03 9.44e-01 1.80e+09  -1.0 8.20e+07    -  7.05e-02 9.53e-03h  4
  24  6.4933232e+03 3.86e+00 6.50e+10  -1.0 1.17e+08    -  1.40e-01 7.73e-02w  1
  25  6.1328828e+02 4.57e+00 5.30e+10  -1.0 2.97e+08    -  2.22e-01 3.50e-02w  1
  26  6.3105018e+02 4.42e+00 5.00e+10  -1.0 3.05e+06  -1.6 3.20e-01 5.93e-02w  1
  27  1.4063191e+03 9.32e-01 3.59e+09  -1.0 2.78e+06   3.3 1.40e-01 9.67e-03h  3
  28  2.0820003e+03 9.22e-01 8.15e+09  -1.0 1.79e+08    -  3.92e-02 8.87e-03h  4
  29  2.3279583e+03 9.19e-01 9.17e+09  -1.0 1.83e+08    -  3.77e-01 2.87e-03h  5
iter    objective    inf_pr   inf_du lg(mu)  ||d||  lg(rg) alpha_du alpha_pr  ls
  30  2.6716678e+03 9.16e-01 1.11e+10  -1.0 2.35e+08    -  3.58e-02 2.88e-03h  5
  31  2.9197193e+03 9.14e-01 1.27e+10  -1.0 1.87e+08    -  4.66e-01 2.49e-03h  5
  32  2.9197330e+03 9.14e-01 5.78e+11  -1.0 1.11e+07   2.8 2.37e-02 1.08e-04h  9
MA27BD returned iflag=-4 and requires more memory.
 Increase liw from 19240 to 38480 and la from 22500 to 45994 and factorize again.
  33  2.9197698e+03 9.13e-01 1.33e+12  -1.0 1.12e+07   2.3 3.09e-02 2.16e-04h  8
  34  2.9198302e+03 9.13e-01 2.32e+12  -1.0 1.19e+07   1.9 8.54e-02 4.07e-04h  7
  35  2.9198704e+03 9.13e-01 2.56e+12  -1.0 1.44e+07   1.4 6.53e-02 3.37e-04h  7
  36  2.9206847e+03 9.12e-01 2.81e+12  -1.0 2.14e+07   0.9 2.76e-01 9.11e-04h  5
  37  3.0395040e+03 3.87e+00 7.47e+13  -1.0 2.97e+08   0.4 4.90e-03 1.07e-03w  1
  38  3.0644413e+03 4.77e+00 9.30e+13  -1.0 1.75e+07   0.9 2.53e-02 5.43e-03w  1
  39  3.0645471e+03 4.77e+00 9.30e+13  -1.0 2.15e+07   0.4 1.62e-02 5.26e-05w  1
iter    objective    inf_pr   inf_du lg(mu)  ||d||  lg(rg) alpha_du alpha_pr  ls
  40  2.9776730e+03 9.66e-01 2.50e+13  -1.0 8.10e+06   0.8 4.90e-03 5.35e-04h  1
  41  2.9804559e+03 9.63e-01 2.50e+13  -1.0 1.47e+07   1.2 2.22e-01 1.29e-03h  4
  42  2.9867964e+03 9.66e-01 2.59e+13  -1.0 4.40e+07   0.8 1.69e-02 4.62e-04h  4
  43  2.9897279e+03 9.64e-01 2.58e+13  -1.0 1.39e+07   1.2 1.63e-01 1.06e-03h  4
  44  2.9962051e+03 9.68e-01 2.72e+13  -1.0 1.09e+08   0.7 6.31e-03 2.33e-04h  4
  45  2.9976280e+03 9.67e-01 2.72e+13  -1.0 1.23e+07   1.1 6.82e-02 4.75e-04h  5
  46r 2.9976280e+03 9.67e-01 1.00e+03  -0.0 0.00e+00   0.7 0.00e+00 3.78e-07R 11
  47r 2.9976280e+03 9.16e-01 9.97e+02  -0.0 3.56e+03    -  5.34e-03 2.10e-03f  1
  48r 2.9976281e+03 8.22e-01 9.89e+02  -0.0 6.50e+02    -  2.81e-02 7.16e-03f  1
  49  3.0096977e+03 8.21e-01 3.02e+05  -1.0 1.59e+07    -  4.04e-02 2.33e-03h  4
iter    objective    inf_pr   inf_du lg(mu)  ||d||  lg(rg) alpha_du alpha_pr  ls
  50  3.0247252e+03 8.20e-01 6.18e+05  -1.0 2.44e+07    -  4.35e-02 1.59e-03h  5
  51  3.0456295e+03 8.19e-01 9.42e+05  -1.0 3.86e+07    -  1.54e-01 1.17e-03h  6
  52  3.6283209e+03 8.17e-01 1.04e+07  -1.0 3.22e+08    -  2.78e-02 3.03e-03h  5
  53  4.0089814e+03 8.15e-01 1.94e+07  -1.0 2.32e+08    -  4.20e-02 2.58e-03h  5
  54  2.8284740e+03 7.86e-01 2.09e+08  -1.0 9.34e+07    -  2.07e-01 1.92e-02f  2
  55  1.6148887e+03 1.11e+00 6.32e+08  -1.0 1.31e+08    -  1.25e-01 1.87e-02f  2
  56  1.3799812e+03 1.12e+00 5.94e+08  -1.0 5.31e+07    -  2.93e-01 1.11e-02f  3
  57  1.3576285e+03 1.12e+00 7.56e+08  -1.0 1.10e+07    -  2.77e-02 6.88e-03f  4
  58  1.3163005e+03 1.11e+00 8.90e+08  -1.0 2.21e+07    -  9.94e-03 6.61e-03f  4
  59  9.2845573e+02 2.98e+00 3.25e+09  -1.0 2.37e+07    -  4.36e-01 5.21e-02f  1
iter    objective    inf_pr   inf_du lg(mu)  ||d||  lg(rg) alpha_du alpha_pr  ls
  60  9.2932520e+02 2.97e+00 7.71e+09  -1.0 2.38e+06   0.2 2.36e-01 4.30e-03h  2
  61  9.3034787e+02 2.96e+00 1.13e+10  -1.0 2.31e+06  -0.3 4.15e-01 4.81e-03h  1
  62  9.3420923e+02 2.93e+00 1.48e+10  -1.0 4.15e+06    -  1.24e-02 1.15e-02h  3
  63  9.4513864e+02 2.90e+00 1.81e+10  -1.0 3.61e+06    -  3.29e-02 1.02e-02h  1
  64  9.4648405e+02 2.90e+00 1.81e+10  -1.0 4.60e+06    -  1.78e-02 9.64e-04h  1
  65  9.4700211e+02 2.90e+00 1.81e+10  -1.0 3.43e+06    -  1.69e-02 4.97e-04h  1
  66  9.5084693e+02 2.88e+00 1.93e+10  -1.0 3.34e+06    -  1.65e-02 4.91e-03h  3
  67  9.3904959e+02 2.87e+00 3.37e+10  -1.0 7.17e+06    -  1.17e-02 5.49e-03f  1
  68  9.1090897e+02 2.85e+00 2.69e+10  -1.0 2.22e+07    -  2.24e-02 4.64e-03f  1
  69  9.0838086e+02 2.85e+00 1.26e+11  -1.0 3.21e+07    -  2.58e-03 2.56e-04f  1
iter    objective    inf_pr   inf_du lg(mu)  ||d||  lg(rg) alpha_du alpha_pr  ls
  70  8.8631988e+02 4.20e+00 1.04e+15  -1.0 4.05e+07    -  8.01e-03 1.92e-03f  1
  71  8.8651773e+02 4.88e+00 1.33e+14  -1.0 8.47e+06   1.0 6.77e-02 5.22e-04f  5
  72  8.8602506e+02 7.12e+00 8.95e+14  -1.0 3.77e+06   1.5 1.58e-02 6.19e-03H  1
  73  8.8616198e+02 2.81e+00 1.74e+14  -1.0 6.27e+06   1.0 2.11e-02 4.77e-03h  2
  74  8.8616865e+02 2.81e+00 1.75e+14  -1.0 1.35e+07   0.5 2.24e-03 1.69e-05h 10
  75  8.8594241e+02 2.80e+00 2.18e+14  -1.0 6.84e+06   0.9 2.03e-02 3.99e-03h  3
  76  8.6836534e+02 7.14e+00 6.37e+14  -1.0 5.52e+06    -  7.97e-02 1.30e-02f  1
  77  8.6817472e+02 2.25e+02 3.39e+14  -1.0 8.56e+06    -  4.18e-03 8.37e-05f  2
  78  8.6821194e+02 6.40e+00 2.69e+14  -1.0 2.55e+06    -  3.93e-02 9.53e-05h  1
  79  8.6840074e+02 7.63e+00 7.18e+20  -1.0 2.14e+06   4.1 3.39e-02 8.00e-04h  1
WARNING: Problem in step computation; switching to emergency mode.
iter    objective    inf_pr   inf_du lg(mu)  ||d||  lg(rg) alpha_du alpha_pr  ls
  80r 8.6840074e+02 7.63e+00 1.00e+03   0.9 0.00e+00  19.9 0.00e+00 0.00e+00R  1
  81r 8.6840075e+02 7.59e+00 1.80e+03   0.9 7.63e+03    -  3.61e-02 9.90e-04f  1
  82r 8.6840058e+02 1.51e+01 1.45e+11   0.9 4.03e+02    -  7.93e-02 2.28e-02f  1
WARNING: Problem in step computation; switching to emergency mode.
  83r 8.6840058e+02 1.51e+01 1.45e+11   0.9 4.03e+02  19.8 0.00e+00 0.00e+00R  1
WARNING: Problem in step computation; switching to emergency mode.
Restoration phase is called at point that is almost feasible,
  with constraint violation 0.000000e+00. Abort.
Restoration phase in the restoration phase failed.

Number of Iterations....: 83

                                   (scaled)                 (unscaled)
Objective...............:   8.6840057502579748e+02    8.6840057502579748e+02
Dual infeasibility......:   1.4476460528101694e+11    1.4476460528101694e+11
Constraint violation....:   1.5091673642231644e+01    1.5091673642231644e+01
Complementarity.........:   3.1326163192284054e+08    3.1326163192284054e+08
Overall NLP error.......:   1.4476460528101694e+11    1.4476460528101694e+11


Number of objective function evaluations             = 357
Number of objective gradient evaluations             = 80
Number of equality constraint evaluations            = 357
Number of inequality constraint evaluations          = 0
Number of equality constraint Jacobian evaluations   = 85
Number of inequality constraint Jacobian evaluations = 0
Number of Lagrangian Hessian evaluations             = 84
Total CPU secs in IPOPT (w/o function evaluations)   =      0.229
Total CPU secs in NLP function evaluations           =      3.232

EXIT: Restoration Failed!
